c User generated cnf file
p cnf 10 21
2 -7 5 0 
4 8 -4 0 
3 5 -8 0 
10 9 -2 0 
5 1 -4 0 
9 9 -2 0 
7 -2 1 0 
6 -3 2 0 
6 -6 2 0 
9 -6 5 0 
5 -3 10 0 
8 -4 2 0 
1 -8 6 0 
5 -8 4 0 
1 5 -8 0 
5 4 -1 0 
7 4 -10 0 
1 -1 9 0 
8 -6 8 0 
8 4 -4 0 
5 10 -4 0 
